outputs/case_149.model.txt
premium_source_is_loan_or_surrender_or_borrow = True
confirmed_premium_source_compliance = True
informed_loan_risk = True
informed_surrender_loss = True
customer_age_over_65 = False
assessed_customer_understanding_and_risks = False
insurance_is_investment_type = False
explained_investment_risks = True
explained_policy_costs = True
confirmed_customer_can_bear_loss = True
understand_exchange_rate_risk = False
insurance_is_foreign_currency = False
verify_contract_changes_and_signatures = True
assess_premium_source_and_appropriateness = True
explanation_doc_not_compliant = False
violate_148_1_2_flag = False
set_insurance_conditions = True
report_or_disclosure_false = False
agent_and_broker_compliance = True
not_provide_explanation_doc = False
internal_control_executed = True
informed_customer_about_product_and_company = True
other_harmful_acts = False
improper_discount_or_commission = False
violate_148_1_2 = False
sales_process_recording_complete = True
underwriting_staff_qualified = True
comply_broker_management_rules = True
internal_control_established = True
execute_sales_underwriting_claim_procedures = True
pay_loan_referral_fee_except_exemption = False
understand_insurance_purpose_and_needs = True
recording_or_electronic_trace_kept = True
underwriting_suitability_evaluated = True
financial_consumer_info_complete = True
explained_important_terms_and_exclusions = True
not_proactively_disclose = False
financial_consumer_understanding = True
post_sale_contact_compliant = True
commission_payee_differs_from_agent = False
underwriting_process_compliant = True
no_other_harmful_acts = True
use_unauthorized_promotional_material = False
violate_148_2_1 = False
violate_148_2_2 = False
applicant_and_insured_basic_info_complete = True
provide_inappropriate_products = False
violate_148_3_1 = False
explanation_doc_false = False
confirmed_customer_understands_premium_and_affordability = True
explained_contract_cancellation_rights = True
unqualified_sales_personnel = False
internal_handling_established = True
no_induce_contract_termination_or_loan_payment = True
induce_contract_termination_or_loan_payment = False
violate_148_3_2 = False
fail_confirm_suitability_for_elderly = False
non_sales_staff_assigned_for_contact = True
no_improper_discount_or_inducement = True
agent_showed_qualification = True
not_report_to_authority_in_time = False
verify_beneficiary_consent = True
induce_violate_disclosure_obligation = False
internal_handling_executed = True
consumer_understands_premium_usage = True
implement_financial_underwriting_and_reporting = True
contact_records_kept = True
internal_control_and_handling_ok = True
sales_process_recorded_and_reviewed = True
execute_sales_underwriting_claim_procedures_flag = True
other_regulatory_basic_info_complete = True
unfair_treatment_due_to_disability = False
understand_financial_consumer = True
implement_risk_assessment_and_premium_calculation = True
insurance_suitability_evaluated = True
reviewed_by_appropriate_unit = True
prohibit_improper_sales_acts = True
applicant_and_insured_relationship_known = True
penalty = False
preserve_personal_data_properly = True
understand_premium_source = True
insurance_amount_and_premium_match_needs = True
verify_applicant_and_insured_identity = True
misappropriate_or_embezzle_premium = False
false_or_misleading_promotion = False